20 16

10 9 7 6 14 15 6 7 3 15 8 14
14 5 6 7 2 8 13 9
10 10 9 4 15 14 5 11 4 8 13 4
11 8 5 7 7 8 14 11 9 13
12 3 1 10 7 6 11 4
14 10 16 14 2 6 5 2 8 7
2 6 14 12 8 7 6 14 9 4
13 7 7 10 4 12 11 12
14 7 15 7 2 12 16 7
10 4 3 5 9 6 8 8 11 7 1 7
6 14 7 2 14 13 11 3 2 7 1 12
8 6 1 2 4 15 14 3 11 9 9 3
4 4 6 10 13 8 2 7
2 6 15 11 9 2 5 4 6 6
6 13 12 13 9 5 4 11 10 13
8 11 16 8 6 8 13 12 2 11
12 9 15 15 7 2 13 5 16 4 1 14
15 6 6 15 9 2 12 15 14 10 10 15
11 3 4 5 12 6 6 12
16 3 9 4 1 6 7 6
